NAME : TW_40_seed_None_id_7
TYPE : CVRPTW
DIMENSION : 11
EDGE_WEIGHT_TYPE : EUC_2D
CAPACITY : 25
SERVICE_TIME : 100
LATE_COEFF : 0
NODE_COORD_SECTION
1	335	721
2	434	523
3	1	401
4	573	430
5	133	251
6	758	770
7	535	340
8	658	487
9	318	705
10	585	581
11	875	213
DEMAND_SECTION
1	0
2	7
3	9
4	8
5	7
6	4
7	4
8	10
9	8
10	8
11	5
TIME_WINDOW_SECTION
1	0	10000
2	6583	8530
3	7339	9395
4	0	1470
5	1520	3454
6	3151	5267
7	1142	3194
8	1277	3268
9	7264	9204
10	0	1940
11	4568	6504
DEPOT_SECTION
1
-1
EOF
